
******************************************************************************
This program contains Ipopt, a library for large-scale nonlinear optimization.
 Ipopt is released as open source code under the Eclipse Public License (EPL).
         For more information visit http://projects.coin-or.org/Ipopt

This version of Ipopt was compiled from source code available at
    https://github.com/IDAES/Ipopt as part of the Institute for the Design of
    Advanced Energy Systems Process Systems Engineering Framework (IDAES PSE
    Framework) Copyright (c) 2018-2019. See https://github.com/IDAES/idaes-pse.

This version of Ipopt was compiled using HSL, a collection of Fortran codes
    for large-scale scientific computation.  All technical papers, sales and
    publicity material resulting from use of the HSL codes within IPOPT must
    contain the following acknowledgement:
        HSL, a collection of Fortran codes for large-scale scientific
        computation. See http://www.hsl.rl.ac.uk.
******************************************************************************

This is Ipopt version 3.13.2, running with linear solver ma27.

Number of nonzeros in equality constraint Jacobian...:      808
Number of nonzeros in inequality constraint Jacobian.:        0
Number of nonzeros in Lagrangian Hessian.............:      702

Total number of variables............................:      351
                     variables with only lower bounds:      108
                variables with lower and upper bounds:      189
                     variables with only upper bounds:        0
Total number of equality constraints.................:      350
Total number of inequality constraints...............:        0
        inequality constraints with only lower bounds:        0
   inequality constraints with lower and upper bounds:        0
        inequality constraints with only upper bounds:        0

iter    objective    inf_pr   inf_du lg(mu)  ||d||  lg(rg) alpha_du alpha_pr  ls
   0  0.0000000e+00 4.52e-01 1.65e-24  -1.0 0.00e+00    -  0.00e+00 0.00e+00   0
   1  3.6674196e+00 3.06e+00 5.30e+04  -1.0 2.60e+05    -  4.11e-01 4.50e-01h  1
   2  4.6571320e+00 2.71e+00 4.78e+04  -1.0 1.66e+05    -  7.91e-01 9.20e-02h  1
   3  4.8860080e+00 2.65e+00 4.68e+04  -1.0 2.07e+05    -  8.00e-01 2.10e-02h  1
   4  2.6119665e+01 2.65e-01 1.70e+04  -1.0 2.06e+05    -  8.08e-01 9.90e-01h  1
   5  3.0355693e+01 7.06e-03 3.40e+03  -1.0 2.66e+04    -  9.69e-01 9.90e-01h  1
   6  3.0449812e+01 1.32e-04 3.62e+01  -1.0 5.72e+02    -  9.90e-01 9.90e-01h  1
   7  3.0451161e+01 1.28e-04 1.96e+07  -1.0 5.78e+02    -  9.90e-01 3.09e-02f  6
   8  3.0454658e+01 1.24e-04 3.94e+07  -1.0 1.52e+03    -  9.94e-01 3.09e-02f  6
   9  3.0565095e+01 6.85e-05 6.12e+05  -1.0 1.50e+03    -  1.00e+00 9.90e-01H  1
iter    objective    inf_pr   inf_du lg(mu)  ||d||  lg(rg) alpha_du alpha_pr  ls
  10  3.0565629e+01 7.39e-07 2.18e+07  -1.0 7.13e+00    -  1.00e+00 9.90e-01h  1
  11  3.0565630e+01 7.39e-09 2.18e+09  -1.0 2.29e-02    -  1.00e+00 9.90e-01h  1
  12  3.0565630e+01 7.41e-11 2.18e+11  -1.0 2.29e-04    -  1.00e+00 9.90e-01h  1
In iteration 12, 27 Slacks too small, adjusting variable bounds
  13  3.0565630e+01 1.42e-10 2.18e+13  -1.0 2.22e-05    -  1.00e+00 9.90e-01h  1
  14  3.0565630e+01 9.16e-12 1.13e-01  -1.0 1.30e-04    -  1.00e+00 1.00e+00h  1
  15  3.0565602e+01 4.92e-11 2.22e+13  -9.0 1.79e+03    -  9.98e-01 2.11e-04f 13
  16  3.0565599e+01 4.84e-11 2.22e+13  -9.0 1.55e+03    -  9.99e-01 3.04e-05f 16
  17  3.0565598e+01 4.82e-11 2.22e+13  -9.0 1.55e+03    -  1.00e+00 7.63e-06f 18
  18  3.0565584e+01 6.02e-11 2.22e+13  -9.0 1.55e+03    -  1.00e+00 1.22e-04f 14
  19  3.0565584e+01 6.03e-11 2.22e+13  -9.0 1.55e+03    -  1.00e+00 1.91e-06f 20
iter    objective    inf_pr   inf_du lg(mu)  ||d||  lg(rg) alpha_du alpha_pr  ls
  20  3.0451006e+01 9.10e-04 2.93e+05  -9.0 1.55e+03    -  1.00e+00 1.00e+00f  1
  21  3.0449879e+01 1.16e-08 2.98e-04  -9.0 1.44e+01    -  1.00e+00 1.00e+00h  1
  22  3.0449879e+01 2.18e-11 4.69e-11  -9.0 1.65e-04    -  1.00e+00 1.00e+00h  1

Number of Iterations....: 22

                                   (scaled)                 (unscaled)
Objective...............:   3.0449879171470997e+01    3.0449879171470997e+01
Dual infeasibility......:   4.6898458059987315e-11    4.6898458059987315e-11
Constraint violation....:   2.1761203949921537e-11    2.1761203949921537e-11
Complementarity.........:   9.0909094642336265e-10    9.0909094642336265e-10
Overall NLP error.......:   2.1761203949921537e-11    9.0909094642336265e-10


Number of objective function evaluations             = 132
Number of objective gradient evaluations             = 23
Number of equality constraint evaluations            = 132
Number of inequality constraint evaluations          = 0
Number of equality constraint Jacobian evaluations   = 23
Number of inequality constraint Jacobian evaluations = 0
Number of Lagrangian Hessian evaluations             = 22
Total CPU secs in IPOPT (w/o function evaluations)   =      0.048
Total CPU secs in NLP function evaluations           =      0.943

EXIT: Optimal Solution Found.
